RT is False
Default write of storage_offers_DA.csv just to have a file (but constraint should be inactive)
Reading model...
...model read.
creating competitive generators file...
...competitive generators recorded.
Loading data...
.. day-ahead data read.
Compiling instance...
...instance created.
Creating Offer Mitigation (model will solve as dispatch if TRUE)...
NOTE: storage offers will not be mitigated
...storage offer mitigation file created
Converting model to MPEC...
...converted
NOTE: initial MIP solve with only storage competitive to get feasible solution
Solving...

Welcome to IBM(R) ILOG(R) CPLEX(R) Interactive Optimizer 12.9.0.0
  with Simplex, Mixed Integer & Barrier Optimizers
5725-A06 5725-A29 5724-Y48 5724-Y49 5724-Y54 5724-Y55 5655-Y21
Copyright IBM Corp. 1988, 2019.  All Rights Reserved.

Type 'help' for a list of available commands.
Type 'help' followed by a command name for more
information on commands.

CPLEX> Logfile 'cplex.log' closed.
Logfile 'C:\Users\Luke\Desktop\test919\logs\tmp39_k2o15.cplex.log' open.
CPLEX> New value for parallel optimization mode: -1
CPLEX> New value for mixed integer optimality gap tolerance: 0.01
CPLEX> New value for integrality tolerance: 1e-09
CPLEX> New value for feasibility tolerance: 0.01
CPLEX> New value for deterministic time limit in ticks: 75000
CPLEX> Problem 'C:\Users\Luke\Desktop\test919\logs\tmpi8jqfpk0.pyomo.lp' read.
Read time = 0.20 sec. (14.73 ticks)
CPLEX> Problem name         : C:\Users\Luke\Desktop\test919\logs\tmpi8jqfpk0.pyomo.lp
Objective sense      : Maximize
Variables            :   53805  [Nneg: 1,  Box: 22000,  Free: 4464,
                                 Binary: 27340]
Objective nonzeros   :    8981
Linear constraints   :  123205  [Less: 41346,  Greater: 59096,  Equal: 22763]
  Nonzeros           :  291802
  RHS nonzeros       :   67492

Variables            : Min LB: -5000.000        Max UB: 1000000.       
Objective nonzeros   : Min   : 0.1000000        Max   : 750.2000       
Linear constraints   :
  Nonzeros           : Min   : 0.1000000        Max   : 1000000.       
  RHS nonzeros       : Min   : 0.1000000        Max   : 1000000.       
CPLEX> CPXPARAM_Parallel                                -1
CPXPARAM_Simplex_Tolerances_Feasibility          0.01
CPXPARAM_DetTimeLimit                            75000
CPXPARAM_MIP_Tolerances_MIPGap                   0.01
CPXPARAM_MIP_Tolerances_Integrality              1.0000000000000001e-09
Tried aggregator 3 times.
MIP Presolve eliminated 88684 rows and 18987 columns.
MIP Presolve added 3398 rows and 0 columns.
MIP Presolve modified 24882 coefficients.
Aggregator did 12989 substitutions.
Reduced MIP has 24930 rows, 21276 columns, and 71112 nonzeros.
Reduced MIP has 8397 binaries, 0 generals, 0 SOSs, and 0 indicators.
Presolve time = 0.25 sec. (173.70 ticks)
Probing fixed 382 vars, tightened 2790 bounds.
Probing time = 1.30 sec. (866.51 ticks)
Tried aggregator 2 times.
MIP Presolve eliminated 859 rows and 765 columns.
MIP Presolve modified 2193 coefficients.
Aggregator did 42 substitutions.
Reduced MIP has 24029 rows, 20469 columns, and 68498 nonzeros.
Reduced MIP has 8015 binaries, 0 generals, 0 SOSs, and 0 indicators.
Presolve time = 0.09 sec. (72.35 ticks)
Probing time = 0.03 sec. (15.83 ticks)
Clique table members: 6289.
MIP emphasis: balance optimality and feasibility.
MIP search method: dynamic search.
Parallel mode: opportunistic, using up to 24 threads.
Root relaxation solution time = 0.28 sec. (254.21 ticks)

        Nodes                                         Cuts/
   Node  Left     Objective  IInf  Best Integer    Best Bound    ItCnt     Gap

      0     0     8052.2153  1934                   8052.2153     5564         
      0     0     8052.2044    47                    Cuts: 27     5579         
      0     0     8051.9653    46                    Cuts: 34     5592         
      0     0     8051.9653    46                 Impl Bds: 2     5592         
      0    16    infeasible                         Covers: 1     5766         
Elapsed time = 8.61 sec. (5550.76 ticks, tree = 0.03 MB, solutions = 0)
    336    48    infeasible                         8049.1685     7345         
    897   269     8047.6292    14                   8049.1685    17446         
   1385   787     7765.1020    28                   8049.1685    20231         
   1658   829    infeasible                         8049.1685    22085         
   1803   911    infeasible                         8049.1685    22618         
   1913   955    infeasible                         8049.1685    23426         
   2015   955    infeasible                         8049.1685    23430         
   2121   962     8048.1071     4                   8049.1685    23513         
   2202   992    infeasible                         8049.1685    23678         
   2501  1119     7777.8487     1                   8049.1685    24258         
Elapsed time = 13.53 sec. (8670.53 ticks, tree = 5.23 MB, solutions = 0)
   2717  1223     8043.0369     2                   8049.1685    24512         
   2925  1235    -8954.6868     1                   8049.1685    24552         
   3097  1284     8046.7055     7                   8049.1685    24744         
   3253  1335     8049.1683     5                   8049.1685    24899         
   3425  1373     8045.9106     3                   8049.1685    25200         
*  3608+  964                         7412.4750     8049.1685             8.59%
*  3729   817      integral     0     7966.1684     8049.1685    25787    1.04%
   3950   782     8040.2116     7     7966.1684     8049.1685    26031    1.04%
   4357   579        cutoff           7966.1684     8049.1685    27246    1.04%
   4765   648     8049.1683     6     7966.1684     8049.1685    27983    1.04%
   5215   749     8047.5069     7     7966.1684     8049.1685    28770    1.04%
Elapsed time = 23.83 sec. (18067.37 ticks, tree = 5.39 MB, solutions = 3)
   5603  1100        cutoff           7966.1684     8049.1685    30214    1.04%
   5973  1222     8032.4210     4     7966.1684     8049.1685    30715    1.04%
   6329  1430     8048.0986     2     7966.1684     8049.1685    31439    1.04%
   6572  1599     8028.5978     7     7966.1684     8049.1685    32119    1.04%
   6811  1690     7976.6765     3     7966.1684     8049.1685    32459    1.04%
   7010  1775     8043.1039     8     7966.1684     8049.1685    33008    1.04%
   7169  1774     8044.2730     3     7966.1684     8049.1685    32986    1.04%
   7277  1786     8044.5762     2     7966.1684     8049.1685    33203    1.04%
   7298  1810     7976.6765     1     7966.1684     8049.1685    33372    1.04%
   7299  1909    infeasible           7966.1684     8049.1685    38402    1.04%
Elapsed time = 34.38 sec. (28277.84 ticks, tree = 16.96 MB, solutions = 3)
*  7722    79      integral     0     8043.2281     8049.1685    38819    0.07%
*  7807   108      integral     0     8043.2281     8049.1685    38981    0.07%

Implied bound cuts applied:  5
Flow cuts applied:  5
Mixed integer rounding cuts applied:  4
Gomory fractional cuts applied:  2

Root node processing (before b&c):
  Real time             =    8.17 sec. (5543.31 ticks)
Parallel b&c, 24 threads:
  Real time             =   27.56 sec. (23430.37 ticks)
  Sync time (average)   =    0.46 sec.
  Wait time (average)   =    0.02 sec.
                          ------------
Total (root+branch&cut) =   35.73 sec. (28973.69 ticks)

Solution pool: 7 solutions saved.

MIP - Integer optimal, tolerance (0.01/1e-06):  Objective =  8.0432281095e+03
Current MIP best bound =  8.0491685315e+03 (gap = 5.94042, 0.07%)
Solution time =   35.73 sec.  Iterations = 40070  Nodes = 7853 (126)
Deterministic time = 28973.84 ticks  (810.82 ticks/sec)

CPLEX> Incumbent solution written to file 'C:\Users\Luke\Desktop\test919\logs\tmpc6lze86b.cplex.sol'.
CPLEX> NOTE: no warmstart specified for MIP iteration, default behavior is true
NOTE: resolving with all competitive generators using storage-only solution to warmstart
Solving...

Welcome to IBM(R) ILOG(R) CPLEX(R) Interactive Optimizer 12.9.0.0
  with Simplex, Mixed Integer & Barrier Optimizers
5725-A06 5725-A29 5724-Y48 5724-Y49 5724-Y54 5724-Y55 5655-Y21
Copyright IBM Corp. 1988, 2019.  All Rights Reserved.

Type 'help' for a list of available commands.
Type 'help' followed by a command name for more
information on commands.

CPLEX> Logfile 'cplex.log' closed.
Logfile 'C:\Users\Luke\Desktop\test919\logs\tmpy52q_y7y.cplex.log' open.
CPLEX> New value for parallel optimization mode: -1
CPLEX> New value for mixed integer optimality gap tolerance: 0.01
CPLEX> New value for integrality tolerance: 1e-09
CPLEX> New value for feasibility tolerance: 0.01
CPLEX> New value for deterministic time limit in ticks: 75000
CPLEX> Problem 'C:\Users\Luke\Desktop\test919\logs\tmpjaxnc5c9.pyomo.lp' read.
Read time = 0.20 sec. (14.75 ticks)
CPLEX> MIP start file 'C:\Users\Luke\Desktop\test919\logs\tmp6f8j9cdi.cplex.mst' read.
CPLEX> Problem name         : C:\Users\Luke\Desktop\test919\logs\tmpjaxnc5c9.pyomo.lp
Objective sense      : Maximize
Variables            :   54525  [Nneg: 1,  Box: 22720,  Free: 4464,
                                 Binary: 27340]
Objective nonzeros   :    9701
Linear constraints   :  123205  [Less: 41346,  Greater: 59096,  Equal: 22763]
  Nonzeros           :  291802
  RHS nonzeros       :   67492

Variables            : Min LB: -5000.000        Max UB: 1000000.       
Objective nonzeros   : Min   : 0.1000000        Max   : 750.2000       
Linear constraints   :
  Nonzeros           : Min   : 0.1000000        Max   : 1000000.       
  RHS nonzeros       : Min   : 0.1000000        Max   : 1000000.       
CPLEX> CPXPARAM_Parallel                                -1
CPXPARAM_Simplex_Tolerances_Feasibility          0.01
CPXPARAM_DetTimeLimit                            75000
CPXPARAM_MIP_Tolerances_MIPGap                   0.01
CPXPARAM_MIP_Tolerances_Integrality              1.0000000000000001e-09
Warning:  No solution found from 1 MIP starts.
Retaining values of one MIP start for possible repair.
Tried aggregator 3 times.
MIP Presolve eliminated 88684 rows and 19707 columns.
MIP Presolve added 3398 rows and 0 columns.
MIP Presolve modified 24882 coefficients.
Aggregator did 12989 substitutions.
Reduced MIP has 24930 rows, 21276 columns, and 71112 nonzeros.
Reduced MIP has 8397 binaries, 0 generals, 0 SOSs, and 0 indicators.
Presolve time = 0.25 sec. (174.06 ticks)
Probing fixed 382 vars, tightened 2790 bounds.
Probing time = 1.30 sec. (866.51 ticks)
Tried aggregator 2 times.
MIP Presolve eliminated 859 rows and 765 columns.
MIP Presolve modified 2193 coefficients.
Aggregator did 42 substitutions.
Reduced MIP has 24029 rows, 20469 columns, and 68498 nonzeros.
Reduced MIP has 8015 binaries, 0 generals, 0 SOSs, and 0 indicators.
Presolve time = 0.09 sec. (72.35 ticks)
Probing time = 0.03 sec. (15.83 ticks)
Clique table members: 6289.
MIP emphasis: balance optimality and feasibility.
MIP search method: dynamic search.
Parallel mode: opportunistic, using up to 24 threads.
Root relaxation solution time = 0.30 sec. (254.21 ticks)

        Nodes                                         Cuts/
   Node  Left     Objective  IInf  Best Integer    Best Bound    ItCnt     Gap

      0     0     8052.2153  1934                   8052.2153     5564         
      0     0     8052.2044    47                    Cuts: 27     5579         
      0     0     8051.9653    46                    Cuts: 34     5592         
      0     0     8051.9653    46                 Impl Bds: 2     5592         
Repair heuristic found nothing.
      0    15    infeasible                         Covers: 1     5828         
Elapsed time = 8.81 sec. (5644.87 ticks, tree = 0.02 MB, solutions = 0)
    404    65     8037.1877    34                   8049.1685     7955         
    953   332     8045.9106    14                   8049.1685    16958         
   1397   659   -48334.6609    15                   8049.1685    18466         
   1555   877   -48851.2134    13                   8049.1685    18877         
   1700   920   -12223.3582     2                   8049.1685    19085         
   1818  1008     8029.9586     1                   8049.1685    19387         
   1936  1000     7967.2164     9                   8049.1685    19376         
   2055  1016    infeasible                         8049.1685    19473         
   2186  1020    infeasible                         8049.1685    19491         
   2563  1215     8049.1685     2                   8049.1685    20340         
Elapsed time = 14.11 sec. (8753.27 ticks, tree = 7.93 MB, solutions = 0)
   2806  1353    infeasible                         8049.1685    21911         
   3012  1379     8046.0896     4                   8049.1685    22007         
   3249  1436     8037.1877     4                   8049.1685    22837         
*  3413+  797                         7900.5547     8049.1685             1.88%
*  3531   866      integral     0     8008.7402     8049.1685    23422    0.50%
   3708   844        cutoff           8008.7402     8049.1685    23368    0.50%

Cover cuts applied:  2
Implied bound cuts applied:  3
Flow cuts applied:  13
Gomory fractional cuts applied:  11

Root node processing (before b&c):
  Real time             =    8.42 sec. (5636.38 ticks)
Parallel b&c, 24 threads:
  Real time             =   10.50 sec. (8568.52 ticks)
  Sync time (average)   =    0.18 sec.
  Wait time (average)   =    0.00 sec.
                          ------------
Total (root+branch&cut) =   18.92 sec. (14204.89 ticks)

Solution pool: 3 solutions saved.

MIP - Integer optimal, tolerance (0.01/1e-06):  Objective =  8.0087402013e+03
Current MIP best bound =  8.0491685315e+03 (gap = 40.4283, 0.50%)
Solution time =   18.94 sec.  Iterations = 24542  Nodes = 3829 (635)
Deterministic time = 14205.05 ticks  (750.12 ticks/sec)

CPLEX> Incumbent solution written to file 'C:\Users\Luke\Desktop\test919\logs\tmpxokay8te.cplex.sol'.
CPLEX> Exporting results... 
